treewidth/data/NauruGraph.gr
p tw 24 36
1 2
1 4
1 5
2 13
2 6
13 18
13 7
18 19
18 8
19 20
19 9
20 21
20 10
21 22
21 11
22 23
22 12
23 24
23 14
24 3
24 15
3 4
3 16
4 17
5 10
5 12
6 11
6 14
7 12
7 15
8 14
8 16
9 15
9 17
10 16
11 17
