treewidth/data/NauruGraph.td
c width = 6, time = 0.138253
s td 14 7 24
b 1 4 6 9 10 15 18 22
b 2 4 6 10 13 15 18 22
b 3 4 6 10 12 13 15 22
b 4 1 4 6 10 12 13
b 5 1 2 6 13
b 6 1 5 10 12
b 7 7 12 13 15
b 8 4 6 10 15 18 22 23
b 9 4 6 10 15 16 18 23
b 10 3 4 15 16 23 24
b 11 6 8 14 16 18 23
b 12 4 6 9 10 18 21 22
b 13 4 6 9 11 17 21
b 14 9 10 18 19 20 21
4 5
4 6
3 4
3 7
2 3
1 2
9 10
9 11
8 9
1 8
12 13
12 14
1 12
